NAME : sim71.89566.tour
COMMENT : Length = 89566
COMMENT : Found by LKH [Keld Helsgaun] Sat Sep 15 14:44:34 2018
TYPE : TOUR
DIMENSION : 71
TOUR_SECTION
1
60
50
63
3
36
57
28
37
66
32
12
18
38
15
45
4
34
52
6
39
13
7
49
58
23
56
41
69
35
67
24
62
59
8
40
51
26
22
53
29
2
33
43
46
65
44
17
68
42
64
54
5
31
55
30
47
48
9
21
16
19
10
27
20
25
70
14
71
11
61
-1
EOF
